%chk=scratch/g1.chk
%nproc=16                                      
%mem=1000mb                                  
#P b3lyp/6-31+g(d,p) nosymm force iop(1/10=10,7/29=2) guess=read    iop(2/12=1)

test input for g09                                                                                  

0 1                                       
 N           -0.3778657913        0.7994446158       -2.9782040119
 H           -0.5485349298        1.7727942467       -3.2488870621
 H            0.3882540166        0.4333418608       -3.5579683781
 H           -1.2379295826        0.2418580502       -3.1532845497
 C            0.0054786489        0.7397544384       -1.5623359680
 H           -0.7391648889        1.3015742302       -0.9405158758
 H            0.0308034532       -0.3288456202       -1.2185316086
 H            1.0237680674        1.1894233227       -1.4330428839
CL            0.9490749836        0.6038883924        1.8732241392
 O-#6--0.83400000              -2.52923012     -8.90085983     20.31731987
 H-#6-0.41700000               -2.75520992     -9.03485012     19.35886002
 H-#6-0.41700000               -1.65434003     -9.32355976     20.32686043
 O-#6--0.83400000               3.69343996     -0.83921999    -18.49871063
 H-#6-0.41700000                4.33439016     -0.66636997    -19.19765091
 H-#6-0.41700000                4.26041985     -1.25651002    -17.81413078
 O-#6--0.83400000              11.69618034      3.07187009    -19.53862000
 H-#6-0.41700000               10.89676952      2.77873993    -19.04437065
 H-#6-0.41700000               11.95526028      3.85402012    -19.00396919
 O-#6--0.83400000              -7.60173988     13.87598991    -18.24065971
 H-#6-0.41700000               -7.10417986     14.08405972    -19.03650093
 H-#6-0.41700000               -7.34105015     12.93817043    -18.10079002
 O-#6--0.83400000               2.97083998     14.71352959    -18.56913948
 H-#6-0.41700000                2.94219995     14.42529011    -19.49945068
 H-#6-0.41700000                2.09246993     14.46856976    -18.21711922
 O-#6--0.83400000             -18.70639038    -11.50294018    -16.25058937
 H-#6-0.41700000              -19.13670921    -11.35534954    -17.13661957
 H-#6-0.41700000              -18.05624008    -10.76673031    -16.28358078
 O-#6--0.83400000             -11.00430965    -14.08477974    -12.73773003
 H-#6-0.41700000              -10.71751022    -13.21183968    -13.08341026
 H-#6-0.41700000              -10.59566021    -14.06999016    -11.84729004
 O-#6--0.83400000             -10.39505959    -15.55788994    -17.54313087
 H-#6-0.41700000              -10.36653042    -15.64056015    -16.55849075
 H-#6-0.41700000               -9.43550968    -15.52845001    -17.74938011
 O-#6--0.83400000              -7.67685986    -12.10783005    -17.24254036
 H-#6-0.41700000               -7.88589001    -11.29971027    -16.73171043
 H-#6-0.41700000               -8.04815006    -12.78435993    -16.63666916
 O-#6--0.83400000             -13.29337025     -6.87504005    -17.44540977
 H-#6-0.41700000              -12.62226963     -7.45065022    -17.86646080
 H-#6-0.41700000              -13.29002953     -6.12576008    -18.07654953
 O-#6--0.83400000             -11.05216026     -8.53020954    -11.51525021
 H-#6-0.41700000              -10.14301968     -8.16732979    -11.40009022
 H-#6-0.41700000              -10.94968033     -9.43091011    -11.13255978
 O-#6--0.83400000             -18.48218918     -8.25257969    -13.93120956
 H-#6-0.41700000              -19.19149017     -8.76159954    -13.50804996
 H-#6-0.41700000              -18.69311905     -8.47902012    -14.87382030
 O-#6--0.83400000             -12.86491966    -14.17438984    -17.70791054
 H-#6-0.41700000              -13.47284031    -14.93842983    -17.61897087
 H-#6-0.41700000              -11.99125004    -14.62471962    -17.71910095
 O-#6--0.83400000             -11.28423977    -17.79289055    -18.80011940
 H-#6-0.41700000              -10.83290005    -17.15759087    -18.20502090
 H-#6-0.41700000              -11.72616959    -17.16877937    -19.41921043
 O-#6--0.83400000             -10.32618999    -15.71335030    -14.88298988
 H-#6-0.41700000              -10.24423027    -16.67122078    -14.64568043
 H-#6-0.41700000              -10.67630959    -15.34710979    -14.04424953
 O-#6--0.83400000             -18.25930023    -16.47060966    -15.32785988
 H-#6-0.41700000              -18.85442924    -16.27322960    -14.59309006
 H-#6-0.41700000              -18.03306961    -15.57540035    -15.67133999
 O-#6--0.83400000              -8.69106007    -13.57923985    -15.19705963
 H-#6-0.41700000               -9.25547028    -14.38389969    -15.15139008
 H-#6-0.41700000               -9.27540016    -12.91977024    -14.76634979
 O-#6--0.83400000             -15.97867966    -17.57238960    -13.90981960
 H-#6-0.41700000              -15.51883030    -16.72566986    -14.10221004
 H-#6-0.41700000              -16.77824020    -17.47318077    -14.45590973
 O-#6--0.83400000             -17.07085991    -13.24787998    -13.46809959
 H-#6-0.41700000              -17.86960983    -13.32444000    -12.89608955
 H-#6-0.41700000              -17.43606949    -13.49734974    -14.34088993
 O-#6--0.83400000             -17.56031990    -13.94581032    -16.05864906
 H-#6-0.41700000              -18.07611084    -13.14972973    -16.32356071
 H-#6-0.41700000              -16.69746017    -13.72130966    -16.46910095
 O-#6--0.83400000             -15.46877003    -11.11246967    -14.44270992
 H-#6-0.41700000              -15.06079960    -10.59881020    -13.71848011
 H-#6-0.41700000              -15.96809959    -11.79687977    -13.95234966
 O-#6--0.83400000             -16.53232956    -14.87125015    -11.14231968
 H-#6-0.41700000              -16.51568985    -14.54547977    -12.05397034
 H-#6-0.41700000              -16.03063965    -14.16211987    -10.68579006
 O-#6--0.83400000             -19.11689949    -17.88265991    -12.40452957
 H-#6-0.41700000              -19.50223923    -18.78112030    -12.47389984
 H-#6-0.41700000              -18.19721985    -18.10499954    -12.15950966
 O-#6--0.83400000             -10.20501995    -18.33616066    -14.30134010
 H-#6-0.41700000              -10.79738998    -18.86208916    -14.88613987
 H-#6-0.41700000               -9.40400028    -18.87052917    -14.35424042
 O-#6--0.83400000             -16.56595993    -18.82412910    -11.67660046
 H-#6-0.41700000              -16.32294083    -18.38629913    -12.53176022
 H-#6-0.41700000              -15.71586037    -18.71755028    -11.19200039
 O-#6--0.83400000             -14.98106003    -15.17428970    -14.64964008
 H-#6-0.41700000              -15.63148022    -14.46179008    -14.57814026
 H-#6-0.41700000              -14.92298031    -15.30648041    -15.62230015
 O-#6--0.83400000             -15.90575027    -11.60344982    -18.91687965
 H-#6-0.41700000              -16.51341057    -10.83668995    -18.84939957
 H-#6-0.41700000              -15.81532955    -11.87979031    -17.97736931
 O-#6--0.83400000             -11.09531975    -10.41946983     -8.12351990
 H-#6-0.41700000              -12.08489037    -10.39770985     -8.05449963
 H-#6-0.41700000              -11.02229977    -10.76317978     -9.03987980
 O-#6--0.83400000             -10.15909004    -13.62658978    -10.09405994
 H-#6-0.41700000               -9.66189003    -13.55591011     -9.24981976
 H-#6-0.41700000              -10.54537964    -14.53433037     -9.96457958
 O-#6--0.83400000             -19.07191086    -18.98917961     -7.04179001
 H-#6-0.41700000              -19.92140007    -19.43372917     -7.20042992
 H-#6-0.41700000              -18.66019058    -19.05908966     -7.94071007
 O-#6--0.83400000             -19.32887077    -13.62642956    -11.93087006
 H-#6-0.41700000              -19.07138062    -14.06921959    -11.09294033
 H-#6-0.41700000              -19.93255997    -12.96238041    -11.58024025
 O-#6--0.83400000             -10.13858032    -11.68262959    -13.79090023
 H-#6-0.41700000               -9.40382957    -11.16724014    -13.39091015
 H-#6-0.41700000              -10.77023029    -10.97045994    -13.98396969
 O-#6--0.83400000             -13.75739002    -10.44293022     -8.16512966
 H-#6-0.41700000              -14.42442036     -9.81908035     -8.51628017
 H-#6-0.41700000              -14.26012993    -10.94262981     -7.49764013
 O-#6--0.83400000             -13.36863041     -7.34652996    -10.82995987
 H-#6-0.41700000              -12.47949028     -7.66962004    -11.10505962
 H-#6-0.41700000              -13.34216022     -6.41496992    -11.13667965
 O-#6--0.83400000              -6.71276999     -5.01731014    -14.45919991
 H-#6-0.41700000               -5.74691010     -4.82411003    -14.42833996
 H-#6-0.41700000               -6.84214020     -5.19916010    -15.42173958
 O-#6--0.83400000             -11.08883953    -11.16563988    -10.72772980
 H-#6-0.41700000              -11.99553013    -11.43994999    -10.98709965
 H-#6-0.41700000              -10.67024040    -12.04817963    -10.58376026
 O-#6--0.83400000             -18.65431976     -7.60674000    -10.44931030
 H-#6-0.41700000              -18.30975914     -8.49359035    -10.69600010
 H-#6-0.41700000              -19.40687943     -7.48652983    -11.03791046
 O-#6--0.83400000              -6.20858002    -11.80568981    -19.39887047
 H-#6-0.41700000               -5.53856993    -11.23252964    -18.95875931
 H-#6-0.41700000               -6.86078978    -11.91244030    -18.65456009
 O-#6--0.83400000             -13.65470028    -11.92850018    -11.40328979
 H-#6-0.41700000              -13.63195992    -12.82534981    -11.80086040
 H-#6-0.41700000              -14.23044014    -12.13469982    -10.62967014
 O-#6--0.83400000             -12.06620026    -19.58379936    -15.89682007
 H-#6-0.41700000              -12.31116009    -20.05533981    -15.07845974
 H-#6-0.41700000              -12.89953041    -19.42230988    -16.36985970
 O-#6--0.83400000             -17.82482910    -19.44887924     -9.33790970
 H-#6-0.41700000              -17.50148964    -18.99847031    -10.15091038
 H-#6-0.41700000              -18.04457092    -20.33540916     -9.68183041
 O-#6--0.83400000             -14.34831047    -14.65270042     -7.59384012
 H-#6-0.41700000              -14.33874989    -15.15235043     -8.44067955
 H-#6-0.41700000              -13.48260021    -14.98188972     -7.25819016
 O-#6--0.83400000             -10.84245014    -18.72163963     -9.14990997
 H-#6-0.41700000              -10.70584965    -19.67544937     -9.25380993
 H-#6-0.41700000              -11.58792973    -18.74600983     -8.51093960
 O-#6--0.83400000             -14.12442017    -18.73282051    -10.46885967
 H-#6-0.41700000              -14.12518978    -17.97924995     -9.85231018
 H-#6-0.41700000              -13.26282024    -18.53507042    -10.93101978
 O-#6--0.83400000             -15.50063038    -17.68544960    -19.63962936
 H-#6-0.41700000              -15.84222984    -18.26412010    -20.33621979
 H-#6-0.41700000              -14.73011971    -17.26507950    -20.07975006
 O-#6--0.83400000             -11.19729042    -16.02071953     -9.86320019
 H-#6-0.41700000              -12.16413021    -16.12313080     -9.89877033
 H-#6-0.41700000              -10.91018009    -16.92753983     -9.63990974
 O-#6--0.83400000             -18.72117996    -18.25489998    -17.17933083
 H-#6-0.41700000              -18.00819969    -18.89080048    -16.92049026
 H-#6-0.41700000              -18.52300072    -17.54924011    -16.51939011
 O-#6--0.83400000             -19.37524033    -10.93877029    -13.43855000
 H-#6-0.41700000              -20.17164993    -11.47984982    -13.40460968
 H-#6-0.41700000              -18.96822929    -11.19452953    -14.28726006
 O-#6--0.83400000             -14.08777046    -16.03595924     -9.90305042
 H-#6-0.41700000              -14.05379963    -15.55420971    -10.75934982
 H-#6-0.41700000              -15.04065037    -16.27051926     -9.84761047
 O-#6--0.83400000              -7.71275997    -15.81523037    -18.20646095
 H-#6-0.41700000               -7.50177002    -16.32081032    -19.00506973
 H-#6-0.41700000               -6.90165997    -15.26817036    -18.14625931
 O-#6--0.83400000             -13.69674969    -18.43325043    -17.68626022
 H-#6-0.41700000              -12.73033047    -18.35940933    -17.86996078
 H-#6-0.41700000              -14.04380035    -18.21788025    -18.57685089
 O-#6--0.83400000             -14.83672047    -16.03820038    -17.28595924
 H-#6-0.41700000              -14.43774986    -16.91080093    -17.08072090
 H-#6-0.41700000              -15.32219982    -16.28894043    -18.09033966
 O-#6--0.83400000             -12.17648029    -16.09383965     -6.92824984
 H-#6-0.41700000              -12.43344021    -17.01030922     -7.16752005
 H-#6-0.41700000              -11.19841003    -16.21488953     -6.91496992
 O-#6--0.83400000             -18.67820930    -16.16480064    -18.86474037
 H-#6-0.41700000              -18.64249992    -16.93066978    -18.24847031
 H-#6-0.41700000              -17.75778961    -15.87936974    -18.91791916
 O-#6--0.83400000             -17.86688042    -11.98859024     -9.10879040
 H-#6-0.41700000              -18.47558022    -12.75522041     -9.02101040
 H-#6-0.41700000              -17.86202049    -11.62158012     -8.19400978
 O-#6--0.83400000             -15.92805004     -7.42780018    -13.64937019
 H-#6-0.41700000              -15.43770027     -8.09278011    -13.13533974
 H-#6-0.41700000              -16.84127045     -7.79773998    -13.64581013
 O-#6--0.83400000              -9.70765972     -6.19302988    -18.15243912
 H-#6-0.41700000              -10.32847977     -6.95371008    -18.23032951
 H-#6-0.41700000               -9.66516018     -5.91148996    -19.07776070
 O-#6--0.83400000             -13.18745995    -11.92389965    -19.17922020
 H-#6-0.41700000              -13.18729973    -12.82878017    -18.78860092
 H-#6-0.41700000              -14.12644005    -11.66823006    -19.10940933
 O-#6--0.83400000             -11.88272953    -18.31945992    -11.72095966
 H-#6-0.41700000              -11.40898037    -18.52150917    -12.54876041
 H-#6-0.41700000              -11.17790031    -18.41180038    -11.05274010
 O-#6--0.83400000             -13.65707970    -14.55840969    -12.28983021
 H-#6-0.41700000              -12.69246006    -14.54994011    -12.48744011
 H-#6-0.41700000              -14.02202034    -14.87532997    -13.14233017
 O-#6--0.83400000             -11.33932018     -8.28929043    -18.64396095
 H-#6-0.41700000              -11.13261032     -8.95858002    -17.94772911
 H-#6-0.41700000              -11.41269016     -8.84385014    -19.43728065
 O-#6--0.83400000             -14.24005032     -9.46669006    -12.44731045
 H-#6-0.41700000              -14.03405952     -8.78283978    -11.77017021
 H-#6-0.41700000              -14.02387047    -10.28845024    -11.94676018
 O-#6--0.83400000             -15.11211967    -12.79782009    -16.64188957
 H-#6-0.41700000              -14.90750980    -12.18418026    -15.90748024
 H-#6-0.41700000              -14.22959042    -13.15215015    -16.87977028
 O-#6--0.83400000             -18.22624016     -7.19928980     -5.84667015
 H-#6-0.41700000              -18.96397018     -6.85567999     -6.41335011
 H-#6-0.41700000              -18.73740005     -7.58307981     -5.09679985
 O-#6--0.83400000             -16.51008987     -9.69781017    -16.54912949
 H-#6-0.41700000              -16.25671005     -8.75434017    -16.43613052
 H-#6-0.41700000              -16.07442093    -10.10927963    -15.77149963
 O-#6--0.83400000             -17.60407066    -10.04430008    -10.95001030
 H-#6-0.41700000              -17.69877052    -10.76525021    -10.28026962
 H-#6-0.41700000              -17.76195908    -10.52692986    -11.77466965
 O-#6--0.83400000             -16.53339005    -19.40076065    -16.31320000
 H-#6-0.41700000              -16.34059906    -20.27883911    -15.91880989
 H-#6-0.41700000              -15.62693977    -19.07764053    -16.44669914
 O-#6--0.83400000             -10.60772038    -11.61507988    -18.67645073
 H-#6-0.41700000              -10.55941010    -11.20691967    -17.79581070
 H-#6-0.41700000              -11.50615025    -12.00162029    -18.66119003
 O-#6--0.83400000             -19.43221092     -8.67393970    -16.34127045
 H-#6-0.41700000              -19.53828049     -7.72094011    -16.56308937
 H-#6-0.41700000              -20.00727081     -9.07769966    -17.01247025
 O-#6--0.83400000              -8.06978035    -10.03641987    -12.89834976
 H-#6-0.41700000               -8.25020027     -9.15643024    -12.49954987
 H-#6-0.41700000               -7.37500000    -10.34216976    -12.29378033
 O-#6--0.83400000              -5.52460003    -14.37368965    -18.90707970
 H-#6-0.41700000               -4.56078005    -14.49316025    -19.06138992
 H-#6-0.41700000               -5.63390017    -13.41116047    -19.08016968
 O-#6--0.83400000               2.54626012    -12.53660965    -17.45767975
 H-#6-0.41700000                2.83997989    -12.67611980    -16.52882957
 H-#6-0.41700000                1.73397994    -12.01274014    -17.29068947
 O-#6--0.83400000              -1.81842005    -17.30643082    -18.19281960
 H-#6-0.41700000               -1.65330005    -17.16913033    -17.22723961
 H-#6-0.41700000               -1.19709003    -16.65179062    -18.53434944
 O-#6--0.83400000               6.50209999     -8.28374958    -14.38129044
 H-#6-0.41700000                6.60946989     -9.26041985    -14.45742035
 H-#6-0.41700000                7.02967978     -7.99129009    -15.16176987
 O-#6--0.83400000               7.98833990     -7.47583008    -16.50167084
 H-#6-0.41700000                7.35979986     -7.08064985    -17.12516975
 H-#6-0.41700000                8.79590034     -6.94562006    -16.69577980
 O-#6--0.83400000              -4.96755981    -13.01976967    -11.46026993
 H-#6-0.41700000               -4.48839998    -12.18315029    -11.64616013
 H-#6-0.41700000               -5.52163982    -13.10548973    -12.26317978
 O-#6--0.83400000               0.10965000     -9.38403034    -14.92428017
 H-#6-0.41700000               -0.68391001     -9.02931023    -15.38412952
 H-#6-0.41700000                0.79347998     -8.73143005    -15.20578003
 O-#6--0.83400000               3.93918991    -10.96177006    -12.61225986
 H-#6-0.41700000                3.11758995    -11.34377003    -12.23511028
 H-#6-0.41700000                4.19889021    -10.34762001    -11.89659977
 O-#6--0.83400000              -2.92260003     -5.87727022    -10.84875965
 H-#6-0.41700000               -3.59687996     -5.19880009    -11.05072975
 H-#6-0.41700000               -3.33289003     -6.66972017    -11.24207020
 O-#6--0.83400000               6.07715988    -13.90497971    -17.53286934
 H-#6-0.41700000                5.65403986    -14.33607960    -16.75283051
 H-#6-0.41700000                6.57673979    -14.67852974    -17.89204025
 O-#6--0.83400000               3.87246990    -18.57472992    -16.66136932
 H-#6-0.41700000                3.45022988    -18.11399078    -17.42848015
 H-#6-0.41700000                4.80753994    -18.63751984    -16.95416069
 O-#6--0.83400000               7.07337999    -18.38587952    -13.93830967
 H-#6-0.41700000                7.49934006    -19.07472992    -13.40849972
 H-#6-0.41700000                6.20404005    -18.32512093    -13.47340012
 O-#6--0.83400000              -0.72780001    -16.45870972    -15.90390015
 H-#6-0.41700000               -1.34991002    -16.50243950    -15.13523006
 H-#6-0.41700000                0.08142000    -16.91385078    -15.56902027
 O-#6--0.83400000               8.50172997    -17.41921043    -16.26733017
 H-#6-0.41700000                7.89045000    -17.68659019    -15.54959011
 H-#6-0.41700000                9.28882980    -17.16485023    -15.72424984
 O-#6--0.83400000               3.58611989    -14.14824963    -13.39050961
 H-#6-0.41700000                3.38389993    -13.39892960    -13.98771954
 H-#6-0.41700000                2.68606997    -14.40771008    -13.10237026
 O-#6--0.83400000              -3.70997000    -10.42918968    -14.81972027
 H-#6-0.41700000               -3.00243998     -9.91648006    -15.25942993
 H-#6-0.41700000               -4.49307013    -10.00737953    -15.22465038
 O-#6--0.83400000              -0.15704000    -13.86170959    -16.45805931
 H-#6-0.41700000                0.78182000    -14.12382030    -16.32206917
 H-#6-0.41700000               -0.55925000    -14.72966957    -16.24703979
 O-#6--0.83400000              -0.45871001    -11.52595043    -13.29967022
 H-#6-0.41700000               -0.23474000    -10.76350021    -13.86855030
 H-#6-0.41700000                0.32437000    -11.56324959    -12.71103954
 O-#6--0.83400000               7.40164995     -4.98823977    -18.48583031
 H-#6-0.41700000                7.12466002     -5.50892019    -19.25522995
 H-#6-0.41700000                8.31791019     -4.73538017    -18.74492073
 O-#6--0.83400000              -5.55295992     -8.98770046    -16.37721062
 H-#6-0.41700000               -5.19156981     -9.45683956    -17.16500092
 H-#6-0.41700000               -5.11917019     -8.11608982    -16.47800064
 O-#6--0.83400000               7.47488022    -16.10172081     -8.59529018
 H-#6-0.41700000                7.58795977    -15.12740040     -8.59759045
 H-#6-0.41700000                7.26948023    -16.25015068     -7.64107990
 O-#6--0.83400000              -1.89270997    -15.17350960    -10.29714012
 H-#6-0.41700000               -1.91542995    -14.74016953    -11.17393970
 H-#6-0.41700000               -2.39633012    -14.56661034     -9.74322987
 O-#6--0.83400000              -1.76493001    -13.75212955    -12.67580032
 H-#6-0.41700000               -1.34543002    -12.92679977    -13.02937031
 H-#6-0.41700000               -2.41685009    -13.92889023    -13.37800026
 O-#6--0.83400000              -6.27460003    -13.66485977    -13.81851006
 H-#6-0.41700000               -6.19163990    -14.61112022    -13.60523033
 H-#6-0.41700000               -7.10929012    -13.64729977    -14.33742046
 O-#6--0.83400000               5.06970978    -17.14912987     -9.68019962
 H-#6-0.41700000                4.72909021    -17.47690010     -8.81470966
 H-#6-0.41700000                5.95031977    -16.81866074     -9.40583992
 O-#6--0.83400000               7.25643015    -15.64293003    -13.52435017
 H-#6-0.41700000                7.08497000    -16.59910965    -13.63354015
 H-#6-0.41700000                8.08798027    -15.69779015    -13.00911999
 O-#6--0.83400000              -4.17883015    -17.69222069    -10.60846043
 H-#6-0.41700000               -3.28544998    -18.07704926    -10.53682041
 H-#6-0.41700000               -4.66481018    -18.43678093    -11.01891041
 O-#6--0.83400000              -1.83384001    -11.92747021    -10.35338020
 H-#6-0.41700000               -1.54031003    -12.55698013    -11.03221035
 H-#6-0.41700000               -2.51025009    -11.43591022    -10.86690044
 O-#6--0.83400000               3.68249011    -11.97226048    -15.09543037
 H-#6-0.41700000                3.81683993    -11.45588970    -14.26747990
 H-#6-0.41700000                4.33261013    -11.56060982    -15.70275974
 O-#6--0.83400000               5.47293997     -7.19389009    -11.97706985
 H-#6-0.41700000                5.05890989     -7.91076994    -11.45153046
 H-#6-0.41700000                5.67948008     -7.65469980    -12.81058979
 O-#6--0.83400000               8.15013027    -11.99507046    -10.98993969
 H-#6-0.41700000                8.97307968    -12.00514984    -11.49771976
 H-#6-0.41700000                7.49982023    -12.26045036    -11.67681026
 O-#6--0.83400000               9.35604000     -9.77915001    -15.72918987
 H-#6-0.41700000                8.97037029     -8.90952015    -15.95814037
 H-#6-0.41700000                8.55547047    -10.24769020    -15.39118958
 O-#6--0.83400000               4.08865023    -17.89702988     -7.25591993
 H-#6-0.41700000                3.73356009    -18.79705048     -7.26221991
 H-#6-0.41700000                4.31444979    -17.78373909     -6.30204010
 O-#6--0.83400000               0.95855999    -19.32766914    -13.21483040
 H-#6-0.41700000                1.12821996    -20.21253967    -12.84646034
 H-#6-0.41700000                0.04001000    -19.43173027    -13.52528000
 O-#6--0.83400000              -3.65908003    -10.66473007    -12.04911041
 H-#6-0.41700000               -3.84582996     -9.72626019    -11.85072041
 H-#6-0.41700000               -3.54911995    -10.60760975    -13.02264023
 O-#6--0.83400000               4.16129017    -11.39657974    -19.36726952
 H-#6-0.41700000                3.52263999    -11.75584030    -18.71015930
 H-#6-0.41700000                3.55211997    -10.89408016    -19.94813919
 O-#6--0.83400000              -4.40801001    -15.36408043    -16.47216034
 H-#6-0.41700000               -4.12814999    -14.56492043    -15.97461987
 H-#6-0.41700000               -4.74404001    -14.96415043    -17.29265022
 O-#6--0.83400000               1.90575004    -13.04629040     -9.01461983
 H-#6-0.41700000                2.22591996    -13.95088959     -9.24775028
 H-#6-0.41700000                1.29935002    -13.26385975     -8.27606964
 O-#6--0.83400000              -3.75137997    -18.49349976     -7.10272980
 H-#6-0.41700000               -3.90647006    -17.55654907     -7.32332993
 H-#6-0.41700000               -2.89304996    -18.47233963     -6.63661003
 O-#6--0.83400000               7.54970980    -19.16873932     -6.18981981
 H-#6-0.41700000                6.74247980    -19.52350044     -6.60169983
 H-#6-0.41700000                7.40319014    -18.19734955     -6.25511980
 O-#6--0.83400000               0.09951000    -18.73756981    -19.58860970
 H-#6-0.41700000               -0.24074000    -18.38669014    -18.75470924
 H-#6-0.41700000                0.50573999    -19.56031990    -19.24687958
 O-#6--0.83400000              -2.91147995    -16.44187927    -14.39986992
 H-#6-0.41700000               -3.49415994    -16.29949951    -13.62697983
 H-#6-0.41700000               -3.50338006    -16.16197014    -15.12246990
 O-#6--0.83400000              -4.72439003    -17.53537941    -19.30443954
 H-#6-0.41700000               -4.73732996    -17.70091057    -20.25568962
 H-#6-0.41700000               -3.85647011    -17.14245033    -19.13426971
 O-#6--0.83400000              -6.85178995    -15.14202023     -8.47961044
 H-#6-0.41700000               -7.61960983    -14.59257030     -8.22113991
 H-#6-0.41700000               -7.29436016    -16.00864983     -8.63603020
 O-#6--0.83400000               1.06412995    -17.20416069    -11.47673035
 H-#6-0.41700000                0.29966000    -17.46172905    -10.90388966
 H-#6-0.41700000                1.09395003    -17.98386955    -12.07236958
 O-#6--0.83400000               5.14680004    -15.13572979    -15.30630016
 H-#6-0.41700000                4.54596996    -14.84410000    -14.58006954
 H-#6-0.41700000                5.93015003    -15.37967968    -14.77877045
 O-#6--0.83400000               2.43276000    -17.28741074    -18.48369980
 H-#6-0.41700000                2.28190994    -17.80126953    -19.30467987
 H-#6-0.41700000                2.28115010    -16.36594963    -18.75559998
 O-#6--0.83400000              -4.58845997    -19.21371078    -14.48209000
 H-#6-0.41700000               -4.66422987    -19.95717049    -15.12038040
 H-#6-0.41700000               -4.60667992    -18.49044037    -15.14678001
 O-#6--0.83400000              -7.82896996    -18.30706024    -17.19212914
 H-#6-0.41700000               -7.84079981    -17.33670044    -17.28116989
 H-#6-0.41700000               -6.91779995    -18.43975067    -16.86680984
 O-#6--0.83400000              -5.27159977     20.15063095    -12.00802994
 H-#6-0.41700000               -5.05380011     20.49736977    -12.91613960
 H-#6-0.41700000               -5.39590979     19.21050072    -12.20816040
 O-#6--0.83400000              -2.74403000    -12.30790043    -17.65753937
 H-#6-0.41700000               -2.67712998    -13.11213017    -18.21326065
 H-#6-0.41700000               -2.19461989    -12.56004047    -16.90230942
 O-#6--0.83400000               0.97257000    -14.67698956    -12.53878021
 H-#6-0.41700000                0.01665000    -14.56371021    -12.69060993
 H-#6-0.41700000                0.99329001    -15.58730030    -12.16257000
 O-#6--0.83400000               1.61682999    -17.72670937    -15.41728020
 H-#6-0.41700000                1.56050003    -18.32278061    -14.64562988
 H-#6-0.41700000                2.38256001    -18.11606026    -15.90641975
 O-#6--0.83400000               2.30830002    -15.09589958    -16.06142044
 H-#6-0.41700000                3.27621007    -15.18535995    -16.03380013
 H-#6-0.41700000                2.03954005    -16.02436066    -15.90482998
 O-#6--0.83400000              -1.04298997    -17.65595055     -9.85548019
 H-#6-0.41700000               -0.98821998    -17.77296066     -8.90034962
 H-#6-0.41700000               -1.40225005    -16.73954010     -9.94427013
 O-#6--0.83400000              -3.78847003    -13.21772003    -14.85021019
 H-#6-0.41700000               -3.70339990    -12.24151993    -14.86458015
 H-#6-0.41700000               -4.67886019    -13.31748962    -14.44690990
 O-#6--0.83400000              -7.81053019    -19.11379051    -10.98441982
 H-#6-0.41700000               -6.91663980    -19.22381020    -11.35921955
 H-#6-0.41700000               -8.13206005    -20.02663040    -11.01714993
 O-#6--0.83400000              -5.11765003    -17.96587944    -16.75453949
 H-#6-0.41700000               -5.05146980    -18.11481094    -17.72621918
 H-#6-0.41700000               -4.77876997    -17.04636955    -16.71114922
 O-#6--0.83400000               2.16360998    -14.57466984    -19.30771065
 H-#6-0.41700000                3.05166006    -14.34181023    -19.64637947
 H-#6-0.41700000                2.18386006    -14.10149956    -18.44046974